p cnf 16 20
-7 -13 -2 -17 0
-16 -6 -14 -10 0
-16 -7 -14 -3 0
-8 -16 -14 -4 0
-14 18 -17 0
-8 -3 -18 0
-3 -10 -18 0
-7 -3 -18 0
-6 19 -18 0
-11 -19 0
-19 -9 0
-8 -19 0
-7 -19 0
-19 -10 0
-4 20 -18 0
-8 -20 0
-20 -11 0
-20 -9 0
-7 -20 0
-20 -10 0
